(set-info :source  loris-7.ddns.comp.nus.edu.sg/~project/hip/) 
;Variables declarations
(declare-fun q_2219 () Int)
(declare-fun Anon_2218 () Int)
(declare-fun Anon_2078 () Int)
(declare-fun flted_12_2197 () Int)
(declare-fun n () Int)
(declare-fun p () Int)
(declare-fun self_2196 () Int)
(declare-fun v_bool_201_1367_primed () Int)
(declare-fun v_bool_199_1375_primed () Int)
(declare-fun y_primed () Int)
(declare-fun y () Int)
(declare-fun x () Int)
(declare-fun self_2076 () Int)
(declare-fun x_primed () Int)
(declare-fun p_2075 () Int)
(declare-fun q () Int)
(declare-fun m () Int)
(declare-fun next_200_2089 () Int)
(declare-fun prev_202_2200 () Int)
(declare-fun p_2195 () Int)
(declare-fun Anon_2230 () Int)
(declare-fun Anon_2198 () Int)
(declare-fun q_2231 () Int)
(declare-fun q_2199 () Int)
(declare-fun flted_12_2077 () Int)
(declare-fun q_2079 () Int)
;Relations declarations
;Axioms assertions
;Antecedent
(assert (= q_2219 y_primed))
(assert (= Anon_2218 Anon_2078))
(assert (= (+ flted_12_2197 1) n))
(assert (= p_2195 p))
(assert (= self_2196 y_primed))
(assert (> v_bool_201_1367_primed 0))
(assert (> y_primed 0))
(assert (> v_bool_199_1375_primed 0))
(assert (< q_2079 1))
(assert (< 0 m))
(assert (= y_primed y))
(assert (= x_primed x))
(assert (= self_2076 x_primed))
(assert (= p_2075 q))
(assert (= (+ flted_12_2077 1) m))
(assert (= next_200_2089 q_2079))
(assert (= prev_202_2200 p_2195))
(assert (= Anon_2230 Anon_2198))
(assert (= q_2231 q_2199))
(assert (or (and (< q_2079 1) (= flted_12_2077 0)) (and (<= 1 flted_12_2077) (> q_2079 0))))
;Negation of Consequence
(assert (not false))
(check-sat)